! Edited 16:20   28/5/2020
&CONTROL 
calculation = "scf", 
disk_io = 'low', 
etot_conv_thr = 1.0E-4, 
forc_conv_thr = 1.0D-3, 
nstep = 40, 
outdir = "/scratch", 
prefix = "pd_fcc_1", 
pseudo_dir = "/rds/homes/b/bxp912/pp", 
restart_mode = 'from_scratch', 
tprnfor = .true., 
tstress = .true., 
/ 
&SYSTEM 
celldm(1) = 7.3521, 
degauss = 0.02, 
ecutrho = 460.0, 
ecutwfc = 161.0, 
ibrav = 0, 
nat = 4, 
nspin = 1, 
ntyp = 1, 
occupations = 'smearing', 
smearing = 'mv', 
starting_magnetization(1) = 0, 
/ 
&ELECTRONS 
conv_thr = 1.0D-6, 
diagonalization = 'david', 
mixing_beta = 1.0000000E-01, 
mixing_mode = 'plain', 
mixing_ndim = 10, 
/ 
&IONS 
ion_dynamics = 'bfgs', 
/ 
&CELL 
cell_dynamics = 'bfgs', 
cell_factor = 2.0, 
press = 0.0, 
/ 
ATOMIC_SPECIES 
Pd 106.42 Pd.pbe-spn-kjpaw_psl.1.0.0.UPF 
ATOMIC_POSITIONS crystal
Pd   -6.78757297562e-05   1.97507400786e-05   0.000141315850601   
Pd   0.500165336436   0.499605387594   0.000146064425111   
Pd   0.499807106455   6.33385207537e-05   0.500613768211   
Pd   -4.15490644968e-05   0.500454280749   0.500381546367   
K_POINTS automatic
3 3 3 1 1 1  
CELL_PARAMETERS alat
1.0 0.0 0.0 
0.0 1.0 0.0 
0.0 0.0 1.0