! Edited 6:18   9/3/2020
&CONTROL 
calculation = "scf", 
disk_io = 'low', 
etot_conv_thr = 1.0E-4, 
forc_conv_thr = 1.0D-3, 
nstep = 40, 
outdir = "/opt/pp", 
prefix = "fe_scf_fcc_2", 
pseudo_dir = "/opt/pp", 
restart_mode = 'from_scratch', 
tprnfor = .true., 
tstress = .true., 
/ 
&SYSTEM 
celldm(1) = 4.04, 
degauss = 0.04, 
ecutrho = 200.0, 
ecutwfc = 50.0, 
ibrav = 0, 
nat = 4, 
nspin = 1, 
ntyp = 1, 
occupations = 'smearing', 
smearing = 'mv', 
starting_magnetization(1) = 0, 
/ 
&ELECTRONS 
conv_thr = 1.0D-6, 
diagonalization = 'david', 
mixing_beta = 1.0000000E-01, 
mixing_mode = 'TF', 
mixing_ndim = 10, 
/ 
&IONS 
ion_dynamics = 'bfgs', 
/ 
&CELL 
cell_dynamics = 'bfgs', 
cell_factor = 2.0, 
press = 0.0, 
/ 
ATOMIC_SPECIES 
Al 26.982 Al.pbe-nl-kjpaw_psl.1.0.0.UPF 
ATOMIC_POSITIONS crystal
Al   -0.00012352206751   3.59429247851e-05   0.000257170362674   
Al   0.500300883666   0.499281873794   0.00026581194551   
Al   0.499648967169   0.000115265133276   0.501116951797   
Al   -7.56120982888e-05   0.500826712252   0.500694348279   
K_POINTS automatic
7 7 7 1 1 1 
CELL_PARAMETERS alat
1.0 0.0 0.0 
0.0 1.0 0.0 
0.0 0.0 1.0