! Edited 6:39   8/4/2020
&CONTROL 
calculation = "scf", 
disk_io = 'low', 
etot_conv_thr = 1.0E-4, 
forc_conv_thr = 1.0D-3, 
nstep = 40, 
outdir = "/opt/scratch", 
prefix = "fe_scf_fcc_2", 
pseudo_dir = "/opt/pp", 
restart_mode = 'from_scratch', 
tprnfor = .true., 
tstress = .true., 
/ 
&SYSTEM 
celldm(1) = 15.2712, 
degauss = 0.02, 
ecutrho = 120.0, 
ecutwfc = 50.0, 
ibrav = 0, 
nat = 32, 
nspin = 1, 
ntyp = 1, 
occupations = 'smearing', 
smearing = 'mv', 
starting_magnetization(1) = 0, 
/ 
&ELECTRONS 
conv_thr = 1.0D-6, 
diagonalization = 'david', 
mixing_beta = 1.0000000E-01, 
mixing_mode = 'TF', 
mixing_ndim = 10, 
/ 
&IONS 
ion_dynamics = 'bfgs', 
/ 
&CELL 
cell_dynamics = 'bfgs', 
cell_factor = 2.0, 
press = 0.0, 
/ 
ATOMIC_SPECIES 
Al 26.982 Al.pbe-nl-kjpaw_psl.1.0.0.UPF 
ATOMIC_POSITIONS crystal
Al   -3.26777956376e-05   9.5087102606e-06   6.80344874798e-05   
Al   0.250079598853   0.249810019522   7.03206205053e-05   
Al   0.249907134172   3.04934215015e-05   0.250295489893   
Al   -2.00032006055e-05   0.250218706945   0.250183690021   
Al   0.000255804783363   0.000252119828621   0.49988098589   
Al   0.250119423334   0.249832581722   0.500003586042   
Al   0.250027786273   0.000153882715779   0.749888029583   
Al   5.49185682589e-05   0.250113634532   0.750210113848   
Al   0.000237459207517   0.500107794483   -1.543720678e-05   
Al   0.250139601487   0.750176210946   0.000405363696592   
Al   0.250189092946   0.500108847526   0.250251049801   
Al   3.83367178803e-05   0.750045544011   0.25002533566   
Al   0.000110152476648   0.500156164673   0.50009901087   
Al   0.249964034842   0.750063244282   0.499870641558   
Al   0.250336568513   0.499789364813   0.749696019749   
Al   -0.000328001513999   0.74970551581   0.749993147658   
Al   0.500203685438   -0.000100406573847   -3.87284392565e-05   
Al   0.749912341593   0.250094074277   -0.00023315456319   
Al   0.749635389711   -9.58941579898e-05   0.250077125091   
Al   0.499975149117   0.249961365744   0.249831712822   
Al   0.499921124461   0.000292922790721   0.499972582474   
Al   0.750068361676   0.249695833393   0.499952277952   
Al   0.750035741801   -6.86519894886e-05   0.750025659821   
Al   0.50001138828   0.249886398625   0.749994834322   
Al   0.499852585826   0.500115600823   -0.00021923791262   
Al   0.7497723248   0.750097818401   0.000273632378874   
Al   0.750100697167   0.499801788982   0.249946179624   
Al   0.500087762721   0.749790803696   0.250209255181   
Al   0.499676110133   0.500102684891   0.500040406058   
Al   0.750165771439   0.749987228309   0.499854654808   
Al   0.749947150784   0.50000945916   0.750139345983   
Al   0.500014196382   0.74994863766   0.749917709928   
K_POINTS automatic
3 3 3 1 1 1  
CELL_PARAMETERS alat
1.0 0.0 0.0 
0.0 1.0 0.0 
0.0 0.0 1.0