! Edited 1:12   25/5/2020
&CONTROL 
calculation = "scf", 
disk_io = 'low', 
etot_conv_thr = 1.0E-4, 
forc_conv_thr = 1.0D-3, 
nstep = 40, 
outdir = "/opt/scratch", 
prefix = "fe_scf_fcc_2", 
pseudo_dir = "/opt/pp", 
restart_mode = 'from_scratch', 
tprnfor = .true., 
tstress = .true., 
/ 
&SYSTEM 
celldm(1) = 30.5424, 
degauss = 0.02, 
ecutrho = 100.0, 
ecutwfc = 25.0, 
ibrav = 0, 
nat = 32, 
nspin = 1, 
ntyp = 1, 
occupations = 'smearing', 
smearing = 'mv', 
starting_magnetization(1) = 0, 
/ 
&ELECTRONS 
conv_thr = 1.0D-6, 
diagonalization = 'david', 
mixing_beta = 1.0000000E-01, 
mixing_mode = 'TF', 
mixing_ndim = 10, 
/ 
&IONS 
ion_dynamics = 'bfgs', 
/ 
&CELL 
cell_dynamics = 'bfgs', 
cell_factor = 2.0, 
press = 0.0, 
/ 
ATOMIC_SPECIES 
Al 26.982 Al.pbe-nl-kjpaw_psl.1.0.0.UPF 
ATOMIC_POSITIONS crystal
Al   -1.63388978188e-05   4.7543551303e-06   3.40172437399e-05   
Al   0.250039799427   0.249905009761   3.51603102526e-05   
Al   0.249953567086   1.52467107507e-05   0.250147744947   
Al   -1.00016003027e-05   0.250109353472   0.25009184501   
Al   0.000127902391682   0.00012605991431   0.499940492945   
Al   0.250059711667   0.249916290861   0.500001793021   
Al   0.250013893136   7.69413578897e-05   0.749944014792   
Al   2.74592841294e-05   0.250056817266   0.750105056924   
Al   0.000118729603759   0.500053897241   -7.71860339e-06   
Al   0.250069800743   0.750088105473   0.000202681848296   
Al   0.250094546473   0.500054423763   0.250125524901   
Al   1.91683589402e-05   0.750022772006   0.25001266783   
Al   5.50762383241e-05   0.500078082336   0.500049505435   
Al   0.249982017421   0.750031622141   0.499935320779   
Al   0.250168284256   0.499894682406   0.749848009875   
Al   -0.000164000757   0.749852757905   0.749996573829   
Al   0.500101842719   -5.02032869237e-05   -1.93642196283e-05   
Al   0.749956170796   0.250047037138   -0.000116577281595   
Al   0.749817694855   -4.79470789949e-05   0.250038562545   
Al   0.499987574558   0.249980682872   0.249915856411   
Al   0.499960562231   0.00014646139536   0.499986291237   
Al   0.750034180838   0.249847916696   0.499976138976   
Al   0.7500178709   -3.43259947443e-05   0.750012829911   
Al   0.50000569414   0.249943199313   0.749997417161   
Al   0.499926292913   0.500057800411   -0.00010961895631   
Al   0.7498861624   0.7500489092   0.000136816189437   
Al   0.750050348584   0.499900894491   0.249973089812   
Al   0.500043881361   0.749895401848   0.250104627591   
Al   0.499838055066   0.500051342446   0.500020203029   
Al   0.75008288572   0.749993614154   0.499927327404   
Al   0.749973575392   0.50000472958   0.750069672992   
Al   0.500007098191   0.74997431883   0.749958854964   
K_POINTS automatic
3 3 3 1 1 1  
CELL_PARAMETERS alat
1.0 0.0 0.0 
0.0 1.0 0.0 
0.0 0.0 1.0